#N M062X/def2svp OPT FREQ=NoRaman temperature=273.15 Integral(Grid=UltraFine)

cpd

0 1
 C              
 C                  1            B1
 C                  2            B2    1            A1
 C                  3            B3    2            A2    1            D1    0
 C                  4            B4    3            A3    2            D2    0
 H                  2            B5    1            A4    5            D3    0
 H                  3            B6    2            A5    1            D4    0
 H                  4            B7    3            A6    2            D5    0
 H                  5            B8    4            A7    3            D6    0
 H                  5            B9    4            A8    3            D7    0
 H                  1           B10    2            A9    3            D8    0

   B1             1.35535954
   B2             1.54050525
   B3             1.48138746
   B4             1.77554541
   B5             1.07000000
   B6             1.07000000
   B7             1.07000000
   B8             1.07000000
   B9             1.07000000
   B10            1.07000000
   A1           108.40666996
   A2           102.15557973
   A3           107.75033410
   A4           125.80711762
   A5           125.77683095
   A6           122.05914235
   A7            97.38986065
   A8           134.54311852
   A9           125.60075369
   D1            30.53005378
   D2            -3.08118795
   D3           131.66461306
   D4          -178.93579263
   D5          -178.86071182
   D6          -134.04299210
   D7           100.84761100
   D8           130.21397796

