#N M062X/def2svp OPT FREQ=NoRaman temperature=273.15 Integral(Grid=UltraFine)

Exo-dcpd

0 1
 C              
 C                  1            B1
 C                  2            B2    1            A1
 C                  1            B3    2            A2    3            D1    0
 H                  1            B4    4            A3    3            D2    0
 H                  4            B5    1            A4    2            D3    0
 C                  2            B6    1            A5    4            D4    0
 H                  7            B7    2            A6    1            D5    0
 H                  7            B8    2            A7    1            D6    0
 C                  2            B9    1            A8    4            D7    0
 H                 10           B10    2            A9    1            D8    0
 C                 10           B11    2           A10    1            D9    0
 H                 12           B12   10           A11    2           D10    0
 H                  2           B13    1           A12    4           D11    0
 H                  3           B14    2           A13    1           D12    0
 C                 12           B15   10           A14    2           D13    0
 H                 16           B16   12           A15   10           D14    0
 C                 10           B17    2           A16    1           D15    0
 H                 18           B18   10           A17    2           D16    0
 H                 18           B19   10           A18    2           D17    0
 C                 16           B20   12           A19   10           D18    0
 H                 21           B21   16           A20   12           D19    0

   B1             1.55489802
   B2             2.19822975
   B3             1.36781001
   B4             1.07000000
   B5             1.07000000
   B6             1.51172538
   B7             1.07000000
   B8             1.07000000
   B9             1.55285356
   B10            1.07000000
   B11            1.55049828
   B12            1.07000000
   B13            1.07000000
   B14            1.07000000
   B15            1.54705305
   B16            1.07000000
   B17            1.54546803
   B18            1.07000000
   B19            1.07000000
   B20            1.35978998
   B21            1.07000000
   A1            73.23632917
   A2           106.40514587
   A3           126.74021956
   A4           127.61151045
   A5           100.46283116
   A6           115.24225001
   A7           113.52470944
   A8           102.43482173
   A9           104.57870523
   A10           99.23360729
   A11          114.10811791
   A12          114.67973581
   A13          160.04654573
   A14          102.63167531
   A15          125.00913955
   A16          122.20397565
   A17          112.19250122
   A18          110.21895966
   A19          110.03885728
   A20          125.41371893
   D1             2.58511059
   D2           178.33442077
   D3           175.40776277
   D4            37.83687342
   D5          -171.24178869
   D6            65.15574363
   D7           -70.58332874
   D8           -44.04086466
   D9            80.80180467
   D10         -146.39177295
   D11          163.71007420
   D12          114.99006811
   D13           91.97628136
   D14         -157.50120093
   D15         -169.47469124
   D16           50.07429056
   D17          171.21760628
   D18           20.46989854
   D19         -177.30396820

